#######################



#######################
Set parameter TimeLimit to value 500
Set parameter SoftMemLimit to value 125
Set parameter MIPFocus to value 3
Set parameter LogFile to value 1202-MIPFocus3-Presolve2-TimeLimit500-k16x240-2.log
Set parameter Presolve to value 2
Set parameter Seed to value 12
Using license file /opt/gurobi/gurobi.lic

Gurobi Optimizer version 12.0.2 build v12.0.2rc0 (linux64 - "Ubuntu 22.04.4 LTS")
Copyright (c) 2025, Gurobi Optimization, LLC

Read MPS format model from file /miplib2010/k16x240.mps.bz2
Reading time = 0.00 seconds
k16x240: 256 rows, 480 columns, 960 nonzeros

Using Gurobi shared library /nfs/shared/static-builds/gurobi1202

CPU model: Intel(R) Xeon(R) E-2388G CPU @ 3.20GHz, instruction set [SSE2|AVX|AVX2|AVX512]
Thread count: 8 physical cores, 16 logical processors, using up to 16 threads

Non-default parameters:
TimeLimit  500
SoftMemLimit  125
MIPFocus  3
Presolve  2
Seed  12

Optimize a model with 256 rows, 480 columns and 960 nonzeros
Model fingerprint: 0x4e80885f
Variable types: 240 continuous, 240 integer (240 binary)
Coefficient statistics:
  Matrix range     [1e+00, 1e+03]
  Objective range  [1e+00, 1e+03]
  Bounds range     [1e+00, 1e+03]
  RHS range        [4e+00, 4e+02]
Found heuristic solution: objective 19617.000000
Presolve time: 0.00s
Presolved: 256 rows, 480 columns, 960 nonzeros
Variable types: 240 continuous, 240 integer (240 binary)
Root relaxation presolve removed 241 rows and 240 columns
Root relaxation presolved: 15 rows, 240 columns, 450 nonzeros


Root relaxation: objective 2.769838e+03, 16 iterations, 0.00 seconds (0.00 work units)

    Nodes    |    Current Node    |     Objective Bounds      |     Work
 Expl Unexpl |  Obj  Depth IntInf | Incumbent    BestBd   Gap | It/Node Time

     0     0 2769.83800    0   14 19617.0000 2769.83800  85.9%     -    0s
H    0     0                    11359.000000 2769.83800  75.6%     -    0s
H    0     0                    11264.000000 2769.83800  75.4%     -    0s
H    0     0                    11261.000000 8116.87580  27.9%     -    0s
H    0     0                    11240.000000 8116.87580  27.8%     -    0s
H    0     0                    10989.000000 8116.87580  26.1%     -    0s
     0     0 8116.87580    0   26 10989.0000 8116.87580  26.1%     -    0s
H    0     0                    10923.000000 8182.85928  25.1%     -    0s
H    0     0                    10919.000000 8182.85928  25.1%     -    0s
H    0     0                    10843.000000 8182.85928  24.5%     -    0s
     0     0 8748.17806    0   23 10843.0000 8748.17806  19.3%     -    0s
H    0     0                    10835.000000 8748.17806  19.3%     -    0s
     0     0 8751.29955    0   20 10835.0000 8751.29955  19.2%     -    0s
     0     0 8791.28017    0   21 10835.0000 8791.28017  18.9%     -    0s
     0     0 8799.12327    0   18 10835.0000 8799.12327  18.8%     -    0s
     0     0 8982.34277    0   28 10835.0000 8982.34277  17.1%     -    0s
H    0     0                    10833.000000 8982.34277  17.1%     -    0s
H    0     0                    10779.000000 8982.34277  16.7%     -    0s
H    0     0                    10765.000000 8982.34277  16.6%     -    0s
H    0     0                    10763.000000 8982.34277  16.5%     -    0s
     0     0 9046.36529    0   35 10763.0000 9046.36529  15.9%     -    0s
     0     0 9061.43288    0   33 10763.0000 9061.43288  15.8%     -    0s
     0     0 9141.08934    0   27 10763.0000 9141.08934  15.1%     -    0s
H    0     0                    10678.000000 9141.08934  14.4%     -    0s
     0     0 9183.80059    0   38 10678.0000 9183.80059  14.0%     -    0s
     0     0 9226.30790    0   33 10678.0000 9226.30790  13.6%     -    0s
     0     0 9266.47462    0   33 10678.0000 9266.47462  13.2%     -    0s
     0     2 9266.47462    0   33 10678.0000 9266.47462  13.2%     -    0s
H  662   673                    10674.000000 9604.95338  10.0%  41.9    0s
  5095  3444 10335.4673   29   24 10674.0000 10293.7735  3.56%  76.3    5s
 19008  8365     cutoff   29      10674.0000 10518.5142  1.46%  55.3   10s

Cutting planes:
  Lift-and-project: 8
  Implied bound: 8
  Dual implied bound: 4
  MIR: 141
  Mixing: 3
  Flow cover: 509
  Flow path: 33
  Zero half: 21
  Network: 14
  Relax-and-lift: 3

Explored 39260 nodes (1472264 simplex iterations) in 12.99 seconds (19.28 work units)
Thread count was 16 (of 16 available processors)

Solution count 10: 10674 10678 10763 ... 10923

Optimal solution found (tolerance 1.00e-04)
Best objective 1.067400000000e+04, best bound 1.067300000000e+04, gap 0.0094%
